c File: flat150_3_0.col
c
c SOURCE: Joseph Culberson (joe@cs.ualberta.ca)
c DESCRIPTION: Quasi-random coloring problem
c              generated with flatness = 0
c                             probability = 0.048
c                             known coloring = 3
c                             random seed = 1050
c              Creation Date:  Wed Feb 24 10:37:32 1999
c Maximum degree = 8 Minimum degree = 1
c COLOR VERIFICATION: Using the permuted order
c under simple greedy yields the specified
c coloring number
c Color = 3 specified partitions = 3
c p edge 150 360
c cnf created by edge2cnf
p cnf 450 1680
-1 -2 0
-1 -3 0
-2 -3 0
1 2 3 0
-4 -5 0
-4 -6 0
-5 -6 0
4 5 6 0
-7 -8 0
-7 -9 0
-8 -9 0
7 8 9 0
-10 -11 0
-10 -12 0
-11 -12 0
10 11 12 0
-13 -14 0
-13 -15 0
-14 -15 0
13 14 15 0
-16 -17 0
-16 -18 0
-17 -18 0
16 17 18 0
-19 -20 0
-19 -21 0
-20 -21 0
19 20 21 0
-22 -23 0
-22 -24 0
-23 -24 0
22 23 24 0
-25 -26 0
-25 -27 0
-26 -27 0
25 26 27 0
-28 -29 0
-28 -30 0
-29 -30 0
28 29 30 0
-31 -32 0
-31 -33 0
-32 -33 0
31 32 33 0
-34 -35 0
-34 -36 0
-35 -36 0
34 35 36 0
-37 -38 0
-37 -39 0
-38 -39 0
37 38 39 0
-40 -41 0
-40 -42 0
-41 -42 0
40 41 42 0
-43 -44 0
-43 -45 0
-44 -45 0
43 44 45 0
-46 -47 0
-46 -48 0
-47 -48 0
46 47 48 0
-49 -50 0
-49 -51 0
-50 -51 0
49 50 51 0
-52 -53 0
-52 -54 0
-53 -54 0
52 53 54 0
-55 -56 0
-55 -57 0
-56 -57 0
55 56 57 0
-58 -59 0
-58 -60 0
-59 -60 0
58 59 60 0
-61 -62 0
-61 -63 0
-62 -63 0
61 62 63 0
-64 -65 0
-64 -66 0
-65 -66 0
64 65 66 0
-67 -68 0
-67 -69 0
-68 -69 0
67 68 69 0
-70 -71 0
-70 -72 0
-71 -72 0
70 71 72 0
-73 -74 0
-73 -75 0
-74 -75 0
73 74 75 0
-76 -77 0
-76 -78 0
-77 -78 0
76 77 78 0
-79 -80 0
-79 -81 0
-80 -81 0
79 80 81 0
-82 -83 0
-82 -84 0
-83 -84 0
82 83 84 0
-85 -86 0
-85 -87 0
-86 -87 0
85 86 87 0
-88 -89 0
-88 -90 0
-89 -90 0
88 89 90 0
-91 -92 0
-91 -93 0
-92 -93 0
91 92 93 0
-94 -95 0
-94 -96 0
-95 -96 0
94 95 96 0
-97 -98 0
-97 -99 0
-98 -99 0
97 98 99 0
-100 -101 0
-100 -102 0
-101 -102 0
100 101 102 0
-103 -104 0
-103 -105 0
-104 -105 0
103 104 105 0
-106 -107 0
-106 -108 0
-107 -108 0
106 107 108 0
-109 -110 0
-109 -111 0
-110 -111 0
109 110 111 0
-112 -113 0
-112 -114 0
-113 -114 0
112 113 114 0
-115 -116 0
-115 -117 0
-116 -117 0
115 116 117 0
-118 -119 0
-118 -120 0
-119 -120 0
118 119 120 0
-121 -122 0
-121 -123 0
-122 -123 0
121 122 123 0
-124 -125 0
-124 -126 0
-125 -126 0
124 125 126 0
-127 -128 0
-127 -129 0
-128 -129 0
127 128 129 0
-130 -131 0
-130 -132 0
-131 -132 0
130 131 132 0
-133 -134 0
-133 -135 0
-134 -135 0
133 134 135 0
-136 -137 0
-136 -138 0
-137 -138 0
136 137 138 0
-139 -140 0
-139 -141 0
-140 -141 0
139 140 141 0
-142 -143 0
-142 -144 0
-143 -144 0
142 143 144 0
-145 -146 0
-145 -147 0
-146 -147 0
145 146 147 0
-148 -149 0
-148 -150 0
-149 -150 0
148 149 150 0
-151 -152 0
-151 -153 0
-152 -153 0
151 152 153 0
-154 -155 0
-154 -156 0
-155 -156 0
154 155 156 0
-157 -158 0
-157 -159 0
-158 -159 0
157 158 159 0
-160 -161 0
-160 -162 0
-161 -162 0
160 161 162 0
-163 -164 0
-163 -165 0
-164 -165 0
163 164 165 0
-166 -167 0
-166 -168 0
-167 -168 0
166 167 168 0
-169 -170 0
-169 -171 0
-170 -171 0
169 170 171 0
-172 -173 0
-172 -174 0
-173 -174 0
172 173 174 0
-175 -176 0
-175 -177 0
-176 -177 0
175 176 177 0
-178 -179 0
-178 -180 0
-179 -180 0
178 179 180 0
-181 -182 0
-181 -183 0
-182 -183 0
181 182 183 0
-184 -185 0
-184 -186 0
-185 -186 0
184 185 186 0
-187 -188 0
-187 -189 0
-188 -189 0
187 188 189 0
-190 -191 0
-190 -192 0
-191 -192 0
190 191 192 0
-193 -194 0
-193 -195 0
-194 -195 0
193 194 195 0
-196 -197 0
-196 -198 0
-197 -198 0
196 197 198 0
-199 -200 0
-199 -201 0
-200 -201 0
199 200 201 0
-202 -203 0
-202 -204 0
-203 -204 0
202 203 204 0
-205 -206 0
-205 -207 0
-206 -207 0
205 206 207 0
-208 -209 0
-208 -210 0
-209 -210 0
208 209 210 0
-211 -212 0
-211 -213 0
-212 -213 0
211 212 213 0
-214 -215 0
-214 -216 0
-215 -216 0
214 215 216 0
-217 -218 0
-217 -219 0
-218 -219 0
217 218 219 0
-220 -221 0
-220 -222 0
-221 -222 0
220 221 222 0
-223 -224 0
-223 -225 0
-224 -225 0
223 224 225 0
-226 -227 0
-226 -228 0
-227 -228 0
226 227 228 0
-229 -230 0
-229 -231 0
-230 -231 0
229 230 231 0
-232 -233 0
-232 -234 0
-233 -234 0
232 233 234 0
-235 -236 0
-235 -237 0
-236 -237 0
235 236 237 0
-238 -239 0
-238 -240 0
-239 -240 0
238 239 240 0
-241 -242 0
-241 -243 0
-242 -243 0
241 242 243 0
-244 -245 0
-244 -246 0
-245 -246 0
244 245 246 0
-247 -248 0
-247 -249 0
-248 -249 0
247 248 249 0
-250 -251 0
-250 -252 0
-251 -252 0
250 251 252 0
-253 -254 0
-253 -255 0
-254 -255 0
253 254 255 0
-256 -257 0
-256 -258 0
-257 -258 0
256 257 258 0
-259 -260 0
-259 -261 0
-260 -261 0
259 260 261 0
-262 -263 0
-262 -264 0
-263 -264 0
262 263 264 0
-265 -266 0
-265 -267 0
-266 -267 0
265 266 267 0
-268 -269 0
-268 -270 0
-269 -270 0
268 269 270 0
-271 -272 0
-271 -273 0
-272 -273 0
271 272 273 0
-274 -275 0
-274 -276 0
-275 -276 0
274 275 276 0
-277 -278 0
-277 -279 0
-278 -279 0
277 278 279 0
-280 -281 0
-280 -282 0
-281 -282 0
280 281 282 0
-283 -284 0
-283 -285 0
-284 -285 0
283 284 285 0
-286 -287 0
-286 -288 0
-287 -288 0
286 287 288 0
-289 -290 0
-289 -291 0
-290 -291 0
289 290 291 0
-292 -293 0
-292 -294 0
-293 -294 0
292 293 294 0
-295 -296 0
-295 -297 0
-296 -297 0
295 296 297 0
-298 -299 0
-298 -300 0
-299 -300 0
298 299 300 0
-301 -302 0
-301 -303 0
-302 -303 0
301 302 303 0
-304 -305 0
-304 -306 0
-305 -306 0
304 305 306 0
-307 -308 0
-307 -309 0
-308 -309 0
307 308 309 0
-310 -311 0
-310 -312 0
-311 -312 0
310 311 312 0
-313 -314 0
-313 -315 0
-314 -315 0
313 314 315 0
-316 -317 0
-316 -318 0
-317 -318 0
316 317 318 0
-319 -320 0
-319 -321 0
-320 -321 0
319 320 321 0
-322 -323 0
-322 -324 0
-323 -324 0
322 323 324 0
-325 -326 0
-325 -327 0
-326 -327 0
325 326 327 0
-328 -329 0
-328 -330 0
-329 -330 0
328 329 330 0
-331 -332 0
-331 -333 0
-332 -333 0
331 332 333 0
-334 -335 0
-334 -336 0
-335 -336 0
334 335 336 0
-337 -338 0
-337 -339 0
-338 -339 0
337 338 339 0
-340 -341 0
-340 -342 0
-341 -342 0
340 341 342 0
-343 -344 0
-343 -345 0
-344 -345 0
343 344 345 0
-346 -347 0
-346 -348 0
-347 -348 0
346 347 348 0
-349 -350 0
-349 -351 0
-350 -351 0
349 350 351 0
-352 -353 0
-352 -354 0
-353 -354 0
352 353 354 0
-355 -356 0
-355 -357 0
-356 -357 0
355 356 357 0
-358 -359 0
-358 -360 0
-359 -360 0
358 359 360 0
-361 -362 0
-361 -363 0
-362 -363 0
361 362 363 0
-364 -365 0
-364 -366 0
-365 -366 0
364 365 366 0
-367 -368 0
-367 -369 0
-368 -369 0
367 368 369 0
-370 -371 0
-370 -372 0
-371 -372 0
370 371 372 0
-373 -374 0
-373 -375 0
-374 -375 0
373 374 375 0
-376 -377 0
-376 -378 0
-377 -378 0
376 377 378 0
-379 -380 0
-379 -381 0
-380 -381 0
379 380 381 0
-382 -383 0
-382 -384 0
-383 -384 0
382 383 384 0
-385 -386 0
-385 -387 0
-386 -387 0
385 386 387 0
-388 -389 0
-388 -390 0
-389 -390 0
388 389 390 0
-391 -392 0
-391 -393 0
-392 -393 0
391 392 393 0
-394 -395 0
-394 -396 0
-395 -396 0
394 395 396 0
-397 -398 0
-397 -399 0
-398 -399 0
397 398 399 0
-400 -401 0
-400 -402 0
-401 -402 0
400 401 402 0
-403 -404 0
-403 -405 0
-404 -405 0
403 404 405 0
-406 -407 0
-406 -408 0
-407 -408 0
406 407 408 0
-409 -410 0
-409 -411 0
-410 -411 0
409 410 411 0
-412 -413 0
-412 -414 0
-413 -414 0
412 413 414 0
-415 -416 0
-415 -417 0
-416 -417 0
415 416 417 0
-418 -419 0
-418 -420 0
-419 -420 0
418 419 420 0
-421 -422 0
-421 -423 0
-422 -423 0
421 422 423 0
-424 -425 0
-424 -426 0
-425 -426 0
424 425 426 0
-427 -428 0
-427 -429 0
-428 -429 0
427 428 429 0
-430 -431 0
-430 -432 0
-431 -432 0
430 431 432 0
-433 -434 0
-433 -435 0
-434 -435 0
433 434 435 0
-436 -437 0
-436 -438 0
-437 -438 0
436 437 438 0
-439 -440 0
-439 -441 0
-440 -441 0
439 440 441 0
-442 -443 0
-442 -444 0
-443 -444 0
442 443 444 0
-445 -446 0
-445 -447 0
-446 -447 0
445 446 447 0
-448 -449 0
-448 -450 0
-449 -450 0
448 449 450 0
-133 -1 0
-134 -2 0
-135 -3 0
-226 -1 0
-227 -2 0
-228 -3 0
-298 -1 0
-299 -2 0
-300 -3 0
-316 -1 0
-317 -2 0
-318 -3 0
-346 -1 0
-347 -2 0
-348 -3 0
-28 -4 0
-29 -5 0
-30 -6 0
-286 -4 0
-287 -5 0
-288 -6 0
-190 -7 0
-191 -8 0
-192 -9 0
-232 -7 0
-233 -8 0
-234 -9 0
-265 -7 0
-266 -8 0
-267 -9 0
-310 -7 0
-311 -8 0
-312 -9 0
-373 -7 0
-374 -8 0
-375 -9 0
-385 -7 0
-386 -8 0
-387 -9 0
-190 -10 0
-191 -11 0
-192 -12 0
-214 -10 0
-215 -11 0
-216 -12 0
-253 -10 0
-254 -11 0
-255 -12 0
-391 -10 0
-392 -11 0
-393 -12 0
-118 -13 0
-119 -14 0
-120 -15 0
-133 -13 0
-134 -14 0
-135 -15 0
-196 -13 0
-197 -14 0
-198 -15 0
-223 -13 0
-224 -14 0
-225 -15 0
-229 -13 0
-230 -14 0
-231 -15 0
-31 -16 0
-32 -17 0
-33 -18 0
-214 -16 0
-215 -17 0
-216 -18 0
-220 -16 0
-221 -17 0
-222 -18 0
-244 -16 0
-245 -17 0
-246 -18 0
-286 -16 0
-287 -17 0
-288 -18 0
-316 -16 0
-317 -17 0
-318 -18 0
-337 -16 0
-338 -17 0
-339 -18 0
-364 -16 0
-365 -17 0
-366 -18 0
-31 -19 0
-32 -20 0
-33 -21 0
-124 -19 0
-125 -20 0
-126 -21 0
-214 -19 0
-215 -20 0
-216 -21 0
-328 -19 0
-329 -20 0
-330 -21 0
-355 -19 0
-356 -20 0
-357 -21 0
-364 -19 0
-365 -20 0
-366 -21 0
-157 -22 0
-158 -23 0
-159 -24 0
-166 -22 0
-167 -23 0
-168 -24 0
-190 -22 0
-191 -23 0
-192 -24 0
-319 -22 0
-320 -23 0
-321 -24 0
-436 -22 0
-437 -23 0
-438 -24 0
-70 -25 0
-71 -26 0
-72 -27 0
-367 -25 0
-368 -26 0
-369 -27 0
-370 -25 0
-371 -26 0
-372 -27 0
-397 -25 0
-398 -26 0
-399 -27 0
-421 -25 0
-422 -26 0
-423 -27 0
-94 -28 0
-95 -29 0
-96 -30 0
-106 -28 0
-107 -29 0
-108 -30 0
-136 -28 0
-137 -29 0
-138 -30 0
-280 -28 0
-281 -29 0
-282 -30 0
-286 -28 0
-287 -29 0
-288 -30 0
-394 -28 0
-395 -29 0
-396 -30 0
-58 -31 0
-59 -32 0
-60 -33 0
-91 -31 0
-92 -32 0
-93 -33 0
-142 -31 0
-143 -32 0
-144 -33 0
-226 -31 0
-227 -32 0
-228 -33 0
-373 -31 0
-374 -32 0
-375 -33 0
-433 -31 0
-434 -32 0
-435 -33 0
-124 -34 0
-125 -35 0
-126 -36 0
-211 -34 0
-212 -35 0
-213 -36 0
-268 -34 0
-269 -35 0
-270 -36 0
-346 -34 0
-347 -35 0
-348 -36 0
-397 -34 0
-398 -35 0
-399 -36 0
-394 -37 0
-395 -38 0
-396 -39 0
-160 -40 0
-161 -41 0
-162 -42 0
-163 -40 0
-164 -41 0
-165 -42 0
-175 -40 0
-176 -41 0
-177 -42 0
-208 -40 0
-209 -41 0
-210 -42 0
-217 -40 0
-218 -41 0
-219 -42 0
-403 -40 0
-404 -41 0
-405 -42 0
-445 -40 0
-446 -41 0
-447 -42 0
-97 -43 0
-98 -44 0
-99 -45 0
-160 -43 0
-161 -44 0
-162 -45 0
-199 -43 0
-200 -44 0
-201 -45 0
-253 -43 0
-254 -44 0
-255 -45 0
-292 -43 0
-293 -44 0
-294 -45 0
-385 -43 0
-386 -44 0
-387 -45 0
-418 -43 0
-419 -44 0
-420 -45 0
-430 -43 0
-431 -44 0
-432 -45 0
-100 -46 0
-101 -47 0
-102 -48 0
-379 -46 0
-380 -47 0
-381 -48 0
-322 -49 0
-323 -50 0
-324 -51 0
-427 -49 0
-428 -50 0
-429 -51 0
-220 -52 0
-221 -53 0
-222 -54 0
-340 -52 0
-341 -53 0
-342 -54 0
-358 -52 0
-359 -53 0
-360 -54 0
-94 -55 0
-95 -56 0
-96 -57 0
-172 -55 0
-173 -56 0
-174 -57 0
-310 -55 0
-311 -56 0
-312 -57 0
-415 -58 0
-416 -59 0
-417 -60 0
-328 -61 0
-329 -62 0
-330 -63 0
-97 -64 0
-98 -65 0
-99 -66 0
-151 -64 0
-152 -65 0
-153 -66 0
-157 -64 0
-158 -65 0
-159 -66 0
-292 -64 0
-293 -65 0
-294 -66 0
-337 -64 0
-338 -65 0
-339 -66 0
-361 -64 0
-362 -65 0
-363 -66 0
-94 -67 0
-95 -68 0
-96 -69 0
-175 -67 0
-176 -68 0
-177 -69 0
-205 -67 0
-206 -68 0
-207 -69 0
-247 -67 0
-248 -68 0
-249 -69 0
-256 -67 0
-257 -68 0
-258 -69 0
-169 -70 0
-170 -71 0
-171 -72 0
-223 -70 0
-224 -71 0
-225 -72 0
-307 -70 0
-308 -71 0
-309 -72 0
-322 -70 0
-323 -71 0
-324 -72 0
-187 -73 0
-188 -74 0
-189 -75 0
-196 -73 0
-197 -74 0
-198 -75 0
-211 -73 0
-212 -74 0
-213 -75 0
-301 -73 0
-302 -74 0
-303 -75 0
-334 -73 0
-335 -74 0
-336 -75 0
-82 -76 0
-83 -77 0
-84 -78 0
-232 -76 0
-233 -77 0
-234 -78 0
-253 -76 0
-254 -77 0
-255 -78 0
-352 -76 0
-353 -77 0
-354 -78 0
-367 -76 0
-368 -77 0
-369 -78 0
-97 -79 0
-98 -80 0
-99 -81 0
-424 -79 0
-425 -80 0
-426 -81 0
-232 -82 0
-233 -83 0
-234 -84 0
-364 -82 0
-365 -83 0
-366 -84 0
-385 -82 0
-386 -83 0
-387 -84 0
-160 -85 0
-161 -86 0
-162 -87 0
-214 -85 0
-215 -86 0
-216 -87 0
-283 -85 0
-284 -86 0
-285 -87 0
-397 -85 0
-398 -86 0
-399 -87 0
-436 -85 0
-437 -86 0
-438 -87 0
-133 -88 0
-134 -89 0
-135 -90 0
-208 -88 0
-209 -89 0
-210 -90 0
-241 -88 0
-242 -89 0
-243 -90 0
-298 -88 0
-299 -89 0
-300 -90 0
-352 -88 0
-353 -89 0
-354 -90 0
-394 -88 0
-395 -89 0
-396 -90 0
-145 -91 0
-146 -92 0
-147 -93 0
-151 -91 0
-152 -92 0
-153 -93 0
-283 -91 0
-284 -92 0
-285 -93 0
-292 -91 0
-293 -92 0
-294 -93 0
-352 -94 0
-353 -95 0
-354 -96 0
-388 -97 0
-389 -98 0
-390 -99 0
-406 -97 0
-407 -98 0
-408 -99 0
-418 -97 0
-419 -98 0
-420 -99 0
-433 -97 0
-434 -98 0
-435 -99 0
-289 -100 0
-290 -101 0
-291 -102 0
-349 -100 0
-350 -101 0
-351 -102 0
-112 -103 0
-113 -104 0
-114 -105 0
-238 -103 0
-239 -104 0
-240 -105 0
-265 -103 0
-266 -104 0
-267 -105 0
-343 -103 0
-344 -104 0
-345 -105 0
-385 -103 0
-386 -104 0
-387 -105 0
-250 -106 0
-251 -107 0
-252 -108 0
-271 -106 0
-272 -107 0
-273 -108 0
-421 -106 0
-422 -107 0
-423 -108 0
-223 -109 0
-224 -110 0
-225 -111 0
-325 -109 0
-326 -110 0
-327 -111 0
-436 -109 0
-437 -110 0
-438 -111 0
-115 -112 0
-116 -113 0
-117 -114 0
-127 -115 0
-128 -116 0
-129 -117 0
-373 -115 0
-374 -116 0
-375 -117 0
-409 -115 0
-410 -116 0
-411 -117 0
-196 -118 0
-197 -119 0
-198 -120 0
-199 -118 0
-200 -119 0
-201 -120 0
-304 -118 0
-305 -119 0
-306 -120 0
-388 -118 0
-389 -119 0
-390 -120 0
-400 -118 0
-401 -119 0
-402 -120 0
-445 -118 0
-446 -119 0
-447 -120 0
-223 -121 0
-224 -122 0
-225 -123 0
-265 -121 0
-266 -122 0
-267 -123 0
-271 -121 0
-272 -122 0
-273 -123 0
-352 -121 0
-353 -122 0
-354 -123 0
-361 -121 0
-362 -122 0
-363 -123 0
-388 -121 0
-389 -122 0
-390 -123 0
-166 -124 0
-167 -125 0
-168 -126 0
-343 -124 0
-344 -125 0
-345 -126 0
-346 -124 0
-347 -125 0
-348 -126 0
-352 -124 0
-353 -125 0
-354 -126 0
-436 -124 0
-437 -125 0
-438 -126 0
-130 -127 0
-131 -128 0
-132 -129 0
-259 -127 0
-260 -128 0
-261 -129 0
-307 -127 0
-308 -128 0
-309 -129 0
-424 -127 0
-425 -128 0
-426 -129 0
-433 -127 0
-434 -128 0
-435 -129 0
-202 -130 0
-203 -131 0
-204 -132 0
-223 -130 0
-224 -131 0
-225 -132 0
-337 -130 0
-338 -131 0
-339 -132 0
-400 -130 0
-401 -131 0
-402 -132 0
-154 -133 0
-155 -134 0
-156 -135 0
-274 -133 0
-275 -134 0
-276 -135 0
-322 -133 0
-323 -134 0
-324 -135 0
-151 -136 0
-152 -137 0
-153 -138 0
-166 -136 0
-167 -137 0
-168 -138 0
-202 -136 0
-203 -137 0
-204 -138 0
-334 -136 0
-335 -137 0
-336 -138 0
-157 -139 0
-158 -140 0
-159 -141 0
-229 -139 0
-230 -140 0
-231 -141 0
-391 -139 0
-392 -140 0
-393 -141 0
-220 -142 0
-221 -143 0
-222 -144 0
-232 -142 0
-233 -143 0
-234 -144 0
-274 -142 0
-275 -143 0
-276 -144 0
-283 -145 0
-284 -146 0
-285 -147 0
-307 -145 0
-308 -146 0
-309 -147 0
-439 -145 0
-440 -146 0
-441 -147 0
-226 -148 0
-227 -149 0
-228 -150 0
-268 -148 0
-269 -149 0
-270 -150 0
-292 -148 0
-293 -149 0
-294 -150 0
-241 -151 0
-242 -152 0
-243 -153 0
-319 -151 0
-320 -152 0
-321 -153 0
-373 -151 0
-374 -152 0
-375 -153 0
-265 -154 0
-266 -155 0
-267 -156 0
-319 -157 0
-320 -158 0
-321 -159 0
-346 -157 0
-347 -158 0
-348 -159 0
-394 -157 0
-395 -158 0
-396 -159 0
-223 -160 0
-224 -161 0
-225 -162 0
-328 -160 0
-329 -161 0
-330 -162 0
-304 -163 0
-305 -164 0
-306 -165 0
-322 -163 0
-323 -164 0
-324 -165 0
-424 -166 0
-425 -167 0
-426 -168 0
-199 -169 0
-200 -170 0
-201 -171 0
-247 -169 0
-248 -170 0
-249 -171 0
-277 -169 0
-278 -170 0
-279 -171 0
-301 -169 0
-302 -170 0
-303 -171 0
-304 -169 0
-305 -170 0
-306 -171 0
-415 -169 0
-416 -170 0
-417 -171 0
-193 -172 0
-194 -173 0
-195 -174 0
-271 -172 0
-272 -173 0
-273 -174 0
-289 -172 0
-290 -173 0
-291 -174 0
-307 -172 0
-308 -173 0
-309 -174 0
-355 -172 0
-356 -173 0
-357 -174 0
-379 -172 0
-380 -173 0
-381 -174 0
-178 -175 0
-179 -176 0
-180 -177 0
-220 -175 0
-221 -176 0
-222 -177 0
-358 -175 0
-359 -176 0
-360 -177 0
-409 -175 0
-410 -176 0
-411 -177 0
-448 -175 0
-449 -176 0
-450 -177 0
-229 -178 0
-230 -179 0
-231 -180 0
-262 -178 0
-263 -179 0
-264 -180 0
-331 -178 0
-332 -179 0
-333 -180 0
-439 -178 0
-440 -179 0
-441 -180 0
-304 -181 0
-305 -182 0
-306 -183 0
-391 -181 0
-392 -182 0
-393 -183 0
-409 -181 0
-410 -182 0
-411 -183 0
-448 -181 0
-449 -182 0
-450 -183 0
-199 -184 0
-200 -185 0
-201 -186 0
-289 -184 0
-290 -185 0
-291 -186 0
-385 -184 0
-386 -185 0
-387 -186 0
-301 -187 0
-302 -188 0
-303 -189 0
-331 -187 0
-332 -188 0
-333 -189 0
-448 -187 0
-449 -188 0
-450 -189 0
-343 -190 0
-344 -191 0
-345 -192 0
-382 -190 0
-383 -191 0
-384 -192 0
-427 -190 0
-428 -191 0
-429 -192 0
-232 -193 0
-233 -194 0
-234 -195 0
-382 -193 0
-383 -194 0
-384 -195 0
-436 -196 0
-437 -197 0
-438 -198 0
-340 -202 0
-341 -203 0
-342 -204 0
-424 -202 0
-425 -203 0
-426 -204 0
-265 -205 0
-266 -206 0
-267 -207 0
-412 -205 0
-413 -206 0
-414 -207 0
-445 -205 0
-446 -206 0
-447 -207 0
-319 -208 0
-320 -209 0
-321 -210 0
-352 -208 0
-353 -209 0
-354 -210 0
-355 -208 0
-356 -209 0
-357 -210 0
-358 -208 0
-359 -209 0
-360 -210 0
-379 -208 0
-380 -209 0
-381 -210 0
-262 -211 0
-263 -212 0
-264 -213 0
-274 -211 0
-275 -212 0
-276 -213 0
-292 -211 0
-293 -212 0
-294 -213 0
-346 -211 0
-347 -212 0
-348 -213 0
-355 -211 0
-356 -212 0
-357 -213 0
-235 -214 0
-236 -215 0
-237 -216 0
-256 -214 0
-257 -215 0
-258 -216 0
-349 -214 0
-350 -215 0
-351 -216 0
-247 -217 0
-248 -218 0
-249 -219 0
-265 -220 0
-266 -221 0
-267 -222 0
-319 -220 0
-320 -221 0
-321 -222 0
-385 -220 0
-386 -221 0
-387 -222 0
-406 -223 0
-407 -224 0
-408 -225 0
-412 -223 0
-413 -224 0
-414 -225 0
-295 -226 0
-296 -227 0
-297 -228 0
-328 -226 0
-329 -227 0
-330 -228 0
-334 -226 0
-335 -227 0
-336 -228 0
-364 -226 0
-365 -227 0
-366 -228 0
-367 -226 0
-368 -227 0
-369 -228 0
-232 -229 0
-233 -230 0
-234 -231 0
-340 -229 0
-341 -230 0
-342 -231 0
-367 -232 0
-368 -233 0
-369 -234 0
-241 -235 0
-242 -236 0
-243 -237 0
-253 -238 0
-254 -239 0
-255 -240 0
-268 -238 0
-269 -239 0
-270 -240 0
-313 -238 0
-314 -239 0
-315 -240 0
-430 -238 0
-431 -239 0
-432 -240 0
-301 -241 0
-302 -242 0
-303 -243 0
-409 -241 0
-410 -242 0
-411 -243 0
-262 -247 0
-263 -248 0
-264 -249 0
-370 -247 0
-371 -248 0
-372 -249 0
-409 -247 0
-410 -248 0
-411 -249 0
-262 -250 0
-263 -251 0
-264 -252 0
-280 -250 0
-281 -251 0
-282 -252 0
-319 -250 0
-320 -251 0
-321 -252 0
-283 -253 0
-284 -254 0
-285 -255 0
-325 -256 0
-326 -257 0
-327 -258 0
-295 -259 0
-296 -260 0
-297 -261 0
-328 -259 0
-329 -260 0
-330 -261 0
-388 -259 0
-389 -260 0
-390 -261 0
-394 -259 0
-395 -260 0
-396 -261 0
-274 -262 0
-275 -263 0
-276 -264 0
-334 -262 0
-335 -263 0
-336 -264 0
-376 -262 0
-377 -263 0
-378 -264 0
-295 -265 0
-296 -266 0
-297 -267 0
-403 -265 0
-404 -266 0
-405 -267 0
-322 -268 0
-323 -269 0
-324 -270 0
-286 -271 0
-287 -272 0
-288 -273 0
-436 -271 0
-437 -272 0
-438 -273 0
-277 -274 0
-278 -275 0
-279 -276 0
-445 -274 0
-446 -275 0
-447 -276 0
-310 -277 0
-311 -278 0
-312 -279 0
-331 -277 0
-332 -278 0
-333 -279 0
-406 -277 0
-407 -278 0
-408 -279 0
-442 -277 0
-443 -278 0
-444 -279 0
-325 -280 0
-326 -281 0
-327 -282 0
-415 -286 0
-416 -287 0
-417 -288 0
-304 -289 0
-305 -290 0
-306 -291 0
-403 -289 0
-404 -290 0
-405 -291 0
-355 -292 0
-356 -293 0
-357 -294 0
-448 -292 0
-449 -293 0
-450 -294 0
-385 -295 0
-386 -296 0
-387 -297 0
-370 -298 0
-371 -299 0
-372 -300 0
-358 -301 0
-359 -302 0
-360 -303 0
-382 -301 0
-383 -302 0
-384 -303 0
-448 -307 0
-449 -308 0
-450 -309 0
-373 -310 0
-374 -311 0
-375 -312 0
-439 -310 0
-440 -311 0
-441 -312 0
-361 -313 0
-362 -314 0
-363 -315 0
-424 -313 0
-425 -314 0
-426 -315 0
-343 -316 0
-344 -317 0
-345 -318 0
-349 -316 0
-350 -317 0
-351 -318 0
-340 -328 0
-341 -329 0
-342 -330 0
-400 -328 0
-401 -329 0
-402 -330 0
-397 -337 0
-398 -338 0
-399 -339 0
-367 -343 0
-368 -344 0
-369 -345 0
-388 -343 0
-389 -344 0
-390 -345 0
-409 -343 0
-410 -344 0
-411 -345 0
-376 -346 0
-377 -347 0
-378 -348 0
-391 -352 0
-392 -353 0
-393 -354 0
-415 -352 0
-416 -353 0
-417 -354 0
-370 -358 0
-371 -359 0
-372 -360 0
-370 -361 0
-371 -362 0
-372 -363 0
-382 -361 0
-383 -362 0
-384 -363 0
-394 -361 0
-395 -362 0
-396 -363 0
-421 -364 0
-422 -365 0
-423 -366 0
-442 -364 0
-443 -365 0
-444 -366 0
-394 -367 0
-395 -368 0
-396 -369 0
-406 -367 0
-407 -368 0
-408 -369 0
-391 -373 0
-392 -374 0
-393 -375 0
-397 -382 0
-398 -383 0
-399 -384 0
-448 -385 0
-449 -386 0
-450 -387 0
-445 -397 0
-446 -398 0
-447 -399 0
-409 -403 0
-410 -404 0
-411 -405 0
-430 -403 0
-431 -404 0
-432 -405 0
-445 -418 0
-446 -419 0
-447 -420 0
-448 -433 0
-449 -434 0
-450 -435 0
-448 -439 0
-449 -440 0
-450 -441 0
